1068
1068
1126
1049
1059
1059
1059
1010
1010
1010
1025
1041
1073
986
986
978
978
1108
1077
1083
921
921
921
921
921
893
973
973
973
973
964
964
964
964
964
964
964
993
993
993
993
993
995
1010
1010
1024
1024
1024
1024
1005
925
1027
977
996
996
1018
962
962
903
903
922
989
989
991
987
959
959
959
959
959
980
980
936
936
936
936
1001
1001
1003
995
990
1004
1004
946
946
946
922
922
922
950
961
961
1019
1022
959
959
959
991
991
924
